Mo  S
 1.0000000000000000
     3.1800000000000002    0.0000000000000000    0.0000000000000000
    -1.5900000000000001    2.7539607840345148    0.0000000000000000
     0.0000000000000000   -0.0000000000000000   23.1900000000000013
 Mo  S
   1   2
Cartesian
  0.0000000000000000  0.0000000000000000 11.5950000000000006
  1.5900000000000001  0.9179869280115049 13.1900000000000013
  1.5900000000000001  0.9179869280115049 10.0000000000000000
