P2_1/m
1.0
    11.32741769 -0.10246116 0.0 
    -2.84874166  7.50332458 0.0 
     0.0         0.0        8.49408944
   4 2 8
Direct
      0.90851861  0.21051529000000002  0.25727981 
      0.46576772999999994  0.66183489  0.26060525 
      0.09148138999999995  0.7894847099999999  0.7572798100000001 
      0.53423227  0.33816511  0.76060525 
      0.27579234999999996  0.08858242999999999  0.2558383 
      0.7242076499999999  0.91141757  0.7558383 
      0.7854356299999999  0.74489282  0.023756 
      0.5475107199999999  0.19097495000000003  0.25401026 
      0.14379994999999998  0.71511876  0.2589846499999999 
      0.78800764  0.74431709  0.49152573 
      0.21456436999999998  0.25510717999999993  0.523756 
      0.45248927999999994  0.80902505  0.7540102599999999 
      0.8562000499999998  0.28488124  0.75898465 
      0.21199235999999994  0.25568291  0.99152573
